data;
#volume maximum du sac-à-dos
param M := 2443;
#nombre de blocs
param n := 509;
#taille des blocs
param t := 1 22
		2 18
		3 30
		4 28
		5 20
		6 14
		7 24
		8 22
		9 7
		10 27
		11 5
		12 26
		13 10
		14 23
		15 9
		16 16
		17 4
		18 11
		19 2
		20 28
		21 9
		22 6
		23 30
		24 10
		25 11
		26 9
		27 15
		28 14
		29 28
		30 22
		31 10
		32 19
		33 1
		34 30
		35 28
		36 15
		37 22
		38 14
		39 1
		40 10
		41 12
		42 9
		43 15
		44 3
		45 12
		46 24
		47 22
		48 18
		49 25
		50 16
		51 28
		52 4
		53 4
		54 16
		55 1
		56 7
		57 5
		58 30
		59 21
		60 15
		61 10
		62 16
		63 3
		64 23
		65 4
		66 3
		67 22
		68 3
		69 22
		70 21
		71 27
		72 25
		73 3
		74 4
		75 18
		76 18
		77 9
		78 19
		79 11
		80 22
		81 4
		82 28
		83 21
		84 12
		85 2
		86 17
		87 20
		88 21
		89 27
		90 29
		91 25
		92 2
		93 2
		94 27
		95 15
		96 18
		97 25
		98 5
		99 8
		100 18
		101 1
		102 29
		103 7
		104 17
		105 26
		106 8
		107 23
		108 6
		109 12
		110 7
		111 4
		112 6
		113 1
		114 5
		115 9
		116 1
		117 10
		118 4
		119 1
		120 2
		121 28
		122 7
		123 1
		124 6
		125 27
		126 30
		127 20
		128 20
		129 29
		130 20
		131 29
		132 22
		133 10
		134 15
		135 30
		136 27
		137 8
		138 8
		139 28
		140 12
		141 1
		142 16
		143 22
		144 2
		145 12
		146 12
		147 24
		148 10
		149 20
		150 4
		151 2
		152 7
		153 24
		154 9
		155 4
		156 6
		157 6
		158 16
		159 9
		160 10
		161 13
		162 22
		163 15
		164 22
		165 16
		166 7
		167 8
		168 10
		169 12
		170 13
		171 21
		172 2
		173 23
		174 7
		175 9
		176 13
		177 20
		178 18
		179 26
		180 23
		181 25
		182 12
		183 26
		184 24
		185 30
		186 27
		187 30
		188 29
		189 29
		190 14
		191 13
		192 20
		193 13
		194 29
		195 8
		196 11
		197 25
		198 18
		199 4
		200 11
		201 23
		202 6
		203 20
		204 13
		205 1
		206 25
		207 6
		208 8
		209 14
		210 26
		211 10
		212 7
		213 11
		214 16
		215 28
		216 8
		217 18
		218 4
		219 9
		220 16
		221 26
		222 6
		223 9
		224 20
		225 10
		226 4
		227 5
		228 15
		229 27
		230 21
		231 10
		232 27
		233 3
		234 17
		235 8
		236 25
		237 27
		238 4
		239 13
		240 18
		241 22
		242 25
		243 15
		244 2
		245 23
		246 10
		247 12
		248 13
		249 28
		250 30
		251 15
		252 30
		253 24
		254 7
		255 18
		256 5
		257 21
		258 18
		259 30
		260 22
		261 25
		262 15
		263 7
		264 11
		265 10
		266 1
		267 3
		268 27
		269 25
		270 9
		271 3
		272 4
		273 11
		274 11
		275 23
		276 15
		277 3
		278 14
		279 10
		280 27
		281 25
		282 13
		283 19
		284 30
		285 17
		286 16
		287 20
		288 3
		289 23
		290 16
		291 7
		292 24
		293 21
		294 2
		295 23
		296 19
		297 17
		298 29
		299 15
		300 18
		301 27
		302 12
		303 6
		304 29
		305 20
		306 28
		307 14
		308 19
		309 12
		310 26
		311 17
		312 6
		313 21
		314 1
		315 15
		316 29
		317 5
		318 26
		319 16
		320 15
		321 30
		322 15
		323 16
		324 30
		325 22
		326 24
		327 24
		328 25
		329 16
		330 11
		331 27
		332 10
		333 3
		334 25
		335 12
		336 15
		337 12
		338 7
		339 1
		340 17
		341 2
		342 13
		343 22
		344 30
		345 24
		346 28
		347 25
		348 5
		349 3
		350 7
		351 22
		352 9
		353 11
		354 14
		355 21
		356 8
		357 23
		358 30
		359 19
		360 4
		361 16
		362 16
		363 7
		364 29
		365 11
		366 29
		367 17
		368 26
		369 13
		370 13
		371 23
		372 9
		373 1
		374 5
		375 22
		376 16
		377 1
		378 8
		379 21
		380 30
		381 24
		382 16
		383 26
		384 20
		385 4
		386 26
		387 13
		388 18
		389 26
		390 25
		391 22
		392 15
		393 10
		394 22
		395 12
		396 14
		397 3
		398 7
		399 24
		400 20
		401 20
		402 7
		403 3
		404 8
		405 8
		406 7
		407 3
		408 21
		409 27
		410 4
		411 17
		412 28
		413 30
		414 8
		415 14
		416 3
		417 26
		418 12
		419 25
		420 26
		421 12
		422 1
		423 6
		424 17
		425 17
		426 17
		427 21
		428 21
		429 1
		430 18
		431 9
		432 2
		433 21
		434 24
		435 23
		436 1
		437 4
		438 9
		439 6
		440 26
		441 29
		442 16
		443 17
		444 22
		445 17
		446 23
		447 12
		448 22
		449 20
		450 2
		451 18
		452 29
		453 25
		454 14
		455 16
		456 13
		457 20
		458 24
		459 17
		460 15
		461 7
		462 20
		463 15
		464 12
		465 10
		466 30
		467 29
		468 1
		469 27
		470 6
		471 23
		472 17
		473 29
		474 10
		475 8
		476 17
		477 23
		478 15
		479 9
		480 2
		481 23
		482 28
		483 29
		484 5
		485 13
		486 20
		487 19
		488 9
		489 29
		490 1
		491 12
		492 3
		493 16
		494 10
		495 5
		496 26
		497 4
		498 2
		499 13
		500 10
		501 8
		502 30
		503 18
		504 5
		505 18
		506 5
		507 15
		508 25
		509 8;
#valeur des blocs
param v := 1 30
		2 40
		3 37
		4 4
		5 42
		6 24
		7 7
		8 36
		9 32
		10 12
		11 37
		12 16
		13 4
		14 35
		15 13
		16 20
		17 13
		18 45
		19 38
		20 11
		21 4
		22 34
		23 8
		24 48
		25 18
		26 7
		27 35
		28 26
		29 48
		30 38
		31 7
		32 5
		33 21
		34 22
		35 49
		36 38
		37 22
		38 13
		39 43
		40 21
		41 19
		42 18
		43 5
		44 44
		45 4
		46 14
		47 44
		48 33
		49 19
		50 24
		51 42
		52 21
		53 37
		54 44
		55 45
		56 42
		57 47
		58 21
		59 4
		60 3
		61 50
		62 21
		63 35
		64 9
		65 11
		66 23
		67 46
		68 15
		69 30
		70 12
		71 27
		72 43
		73 14
		74 24
		75 30
		76 27
		77 45
		78 23
		79 4
		80 34
		81 14
		82 17
		83 3
		84 44
		85 44
		86 8
		87 11
		88 44
		89 16
		90 44
		91 46
		92 25
		93 20
		94 23
		95 30
		96 38
		97 16
		98 5
		99 38
		100 1
		101 6
		102 2
		103 11
		104 43
		105 16
		106 22
		107 11
		108 5
		109 44
		110 7
		111 34
		112 18
		113 2
		114 18
		115 24
		116 21
		117 29
		118 48
		119 23
		120 16
		121 31
		122 2
		123 34
		124 24
		125 34
		126 2
		127 28
		128 20
		129 44
		130 20
		131 10
		132 48
		133 18
		134 30
		135 36
		136 27
		137 33
		138 8
		139 36
		140 44
		141 13
		142 42
		143 17
		144 21
		145 3
		146 30
		147 33
		148 5
		149 24
		150 39
		151 32
		152 29
		153 47
		154 31
		155 22
		156 4
		157 23
		158 28
		159 9
		160 50
		161 43
		162 26
		163 11
		164 27
		165 17
		166 49
		167 36
		168 11
		169 20
		170 17
		171 20
		172 28
		173 19
		174 31
		175 6
		176 41
		177 14
		178 27
		179 49
		180 11
		181 21
		182 12
		183 41
		184 39
		185 18
		186 2
		187 29
		188 32
		189 36
		190 28
		191 48
		192 43
		193 38
		194 38
		195 23
		196 5
		197 12
		198 3
		199 44
		200 15
		201 50
		202 2
		203 44
		204 28
		205 49
		206 24
		207 25
		208 9
		209 36
		210 1
		211 48
		212 4
		213 25
		214 14
		215 49
		216 30
		217 45
		218 29
		219 16
		220 21
		221 13
		222 12
		223 13
		224 2
		225 17
		226 9
		227 13
		228 25
		229 22
		230 6
		231 18
		232 19
		233 20
		234 3
		235 5
		236 3
		237 21
		238 5
		239 35
		240 35
		241 13
		242 18
		243 11
		244 13
		245 32
		246 2
		247 7
		248 16
		249 21
		250 15
		251 44
		252 43
		253 33
		254 49
		255 6
		256 21
		257 29
		258 47
		259 31
		260 22
		261 31
		262 16
		263 49
		264 15
		265 50
		266 44
		267 50
		268 9
		269 35
		270 4
		271 43
		272 13
		273 13
		274 12
		275 22
		276 7
		277 12
		278 41
		279 4
		280 29
		281 38
		282 50
		283 11
		284 23
		285 18
		286 39
		287 1
		288 32
		289 14
		290 8
		291 30
		292 39
		293 38
		294 1
		295 38
		296 50
		297 3
		298 16
		299 8
		300 12
		301 16
		302 36
		303 5
		304 31
		305 14
		306 8
		307 3
		308 36
		309 30
		310 37
		311 17
		312 46
		313 36
		314 38
		315 50
		316 21
		317 50
		318 33
		319 26
		320 27
		321 2
		322 35
		323 33
		324 48
		325 6
		326 30
		327 21
		328 44
		329 35
		330 50
		331 31
		332 3
		333 27
		334 38
		335 1
		336 43
		337 49
		338 10
		339 47
		340 44
		341 42
		342 27
		343 48
		344 17
		345 3
		346 22
		347 37
		348 17
		349 11
		350 16
		351 23
		352 15
		353 35
		354 3
		355 32
		356 34
		357 20
		358 36
		359 32
		360 5
		361 21
		362 20
		363 50
		364 21
		365 45
		366 22
		367 47
		368 39
		369 12
		370 16
		371 40
		372 18
		373 11
		374 30
		375 9
		376 29
		377 11
		378 40
		379 38
		380 23
		381 50
		382 50
		383 33
		384 31
		385 32
		386 39
		387 46
		388 34
		389 12
		390 47
		391 50
		392 3
		393 25
		394 22
		395 3
		396 46
		397 41
		398 50
		399 39
		400 19
		401 27
		402 45
		403 14
		404 28
		405 42
		406 49
		407 3
		408 2
		409 42
		410 41
		411 19
		412 49
		413 36
		414 35
		415 30
		416 46
		417 12
		418 28
		419 19
		420 2
		421 34
		422 4
		423 3
		424 15
		425 32
		426 43
		427 44
		428 12
		429 40
		430 7
		431 50
		432 25
		433 43
		434 38
		435 11
		436 26
		437 43
		438 30
		439 37
		440 42
		441 2
		442 21
		443 26
		444 27
		445 31
		446 36
		447 36
		448 45
		449 17
		450 44
		451 22
		452 23
		453 49
		454 12
		455 49
		456 4
		457 40
		458 46
		459 7
		460 33
		461 7
		462 18
		463 33
		464 24
		465 45
		466 27
		467 38
		468 33
		469 5
		470 24
		471 48
		472 3
		473 2
		474 5
		475 24
		476 46
		477 7
		478 27
		479 29
		480 40
		481 21
		482 41
		483 19
		484 47
		485 20
		486 25
		487 48
		488 7
		489 29
		490 8
		491 50
		492 34
		493 17
		494 46
		495 14
		496 20
		497 5
		498 44
		499 37
		500 45
		501 11
		502 27
		503 48
		504 8
		505 46
		506 30
		507 19
		508 2
		509 27;
end;
